% Auto-generated by scripts/generate_dzn.py
% problem_type   = regex
% instance       = regex_99
% source_json    = instances_json/2_high_blowup/regex_99.json
% blowup         = 24.09090909090909
% representation = NFA

mode = 1;

var_count = 16;
Q = 11;
S = 3;
q0 = 1;
F = {11};
d_dfa = array2d(1..11, 1..3, [
  0, 0, 0,
  0, 0, 0,
  0, 0, 0,
  0, 0, 0,
  0, 0, 0,
  0, 0, 0,
  0, 0, 0,
  0, 0, 0,
  0, 0, 0,
  0, 0, 0,
  0, 0, 0
]);
d_nfa = array2d(1..11, 1..3, [
  {1}, {1, 2}, {1},
  {}, {3}, {},
  {4}, {4}, {4},
  {5}, {5}, {5},
  {6}, {6}, {6},
  {7}, {7}, {7},
  {8}, {8}, {8},
  {9}, {9}, {9},
  {10}, {10}, {10},
  {11}, {11}, {11},
  {}, {}, {}
]);
